NAME : rnd91_20.tsp
TYPE : TSP
DIMENSION : 20
EDGE_WEIGHT_TYPE : EUC_2D
NODE_COORD_SECTION
0 493 93
1 736 264
2 676 926
3 902 769
4 915 89
5 122 704
6 719 295
7 486 206
8 243 958
9 406 189
10 697 194
11 311 577
12 26 486
13 309 972
14 315 196
15 621 181
16 896 262
17 586 163
18 949 814
19 57 429
